25° run output:
{
    "Function": "ClusterB300.tsp",
    "Problem dimension": [
        71,
        99,
        188,
        152,
        117,
        141,
        239,
        213,
        278,
        53,
        167,
        104,
        29,
        127,
        210,
        6,
        143,
        190,
        170,
        100,
        168,
        133,
        26,
        256,
        228,
        254,
        259,
        90,
        79,
        34,
        217,
        164,
        195,
        92,
        13,
        121,
        77,
        69,
        2,
        262,
        251,
        252,
        27,
        134,
        105,
        162,
        70,
        102,
        125,
        1,
        260,
        221,
        37,
        47,
        21,
        96,
        185,
        235,
        275,
        118,
        279,
        49,
        65,
        132,
        19,
        248,
        7,
        175,
        131,
        157,
        14,
        101,
        30,
        145,
        289,
        9,
        81,
        138,
        223,
        158,
        20,
        181,
        59,
        135,
        4,
        297,
        285,
        75,
        173,
        40,
        230,
        249,
        191,
        172,
        115,
        240,
        116,
        204,
        243,
        293,
        159,
        246,
        255,
        272,
        247,
        165,
        109,
        42,
        107,
        144,
        237,
        200,
        292,
        222,
        277,
        45,
        17,
        266,
        46,
        88,
        98,
        3,
        149,
        244,
        128,
        119,
        291,
        130,
        62,
        265,
        245,
        269,
        111,
        58,
        155,
        296,
        242,
        216,
        124,
        232,
        264,
        208,
        163,
        206,
        110,
        11,
        212,
        295,
        194,
        39,
        253,
        288,
        179,
        186,
        229,
        199,
        274,
        231,
        61,
        32,
        60,
        226,
        120,
        106,
        298,
        225,
        280,
        183,
        174,
        192,
        263,
        294,
        177,
        171,
        281,
        218,
        178,
        112,
        169,
        268,
        57,
        83,
        126,
        36,
        95,
        43,
        23,
        211,
        299,
        38,
        220,
        151,
        207,
        234,
        94,
        55,
        89,
        80,
        48,
        51,
        91,
        103,
        202,
        150,
        258,
        50,
        161,
        146,
        187,
        137,
        28,
        276,
        74,
        153,
        136,
        8,
        284,
        31,
        184,
        148,
        44,
        219,
        250,
        84,
        180,
        122,
        140,
        72,
        261,
        114,
        67,
        271,
        214,
        205,
        147,
        156,
        78,
        196,
        12,
        282,
        108,
        24,
        76,
        113,
        73,
        193,
        273,
        15,
        238,
        16,
        54,
        287,
        52,
        233,
        166,
        25,
        257,
        35,
        97,
        22,
        283,
        41,
        209,
        270,
        66,
        267,
        182,
        5,
        236,
        198,
        18,
        203,
        0,
        142,
        139,
        33,
        286,
        10,
        56,
        68,
        290,
        154,
        189,
        129,
        93,
        85,
        82,
        215,
        227,
        201,
        123,
        63,
        160,
        241,
        197,
        224,
        86,
        64,
        176,
        87
    ],
    "Global Optimum": 0,
    "Algorithm": "Genetic algorithm",
    "Parameters": {
        "population": 30,
        "offspring": 30,
        "mutation probability": 0.0033333333333333335,
        "crossover probability": 0.9
    },
    "Fitness": 380437,
    "Solution": [
        71,
        99,
        188,
        152,
        117,
        141,
        239,
        213,
        278,
        53,
        167,
        104,
        29,
        127,
        210,
        6,
        143,
        190,
        170,
        100,
        168,
        133,
        26,
        256,
        228,
        254,
        259,
        90,
        79,
        34,
        217,
        164,
        195,
        92,
        13,
        121,
        77,
        69,
        2,
        262,
        251,
        252,
        27,
        134,
        105,
        162,
        70,
        102,
        125,
        1,
        260,
        221,
        37,
        47,
        21,
        96,
        185,
        235,
        275,
        118,
        279,
        49,
        65,
        132,
        19,
        248,
        7,
        175,
        131,
        157,
        14,
        101,
        30,
        145,
        289,
        9,
        81,
        138,
        223,
        158,
        20,
        181,
        59,
        135,
        4,
        297,
        285,
        75,
        173,
        40,
        230,
        249,
        191,
        172,
        115,
        240,
        116,
        204,
        243,
        293,
        159,
        246,
        255,
        272,
        247,
        165,
        109,
        42,
        107,
        144,
        237,
        200,
        292,
        222,
        277,
        45,
        17,
        266,
        46,
        88,
        98,
        3,
        149,
        244,
        128,
        119,
        291,
        130,
        62,
        265,
        245,
        269,
        111,
        58,
        155,
        296,
        242,
        216,
        124,
        232,
        264,
        208,
        163,
        206,
        110,
        11,
        212,
        295,
        194,
        39,
        253,
        288,
        179,
        186,
        229,
        199,
        274,
        231,
        61,
        32,
        60,
        226,
        120,
        106,
        298,
        225,
        280,
        183,
        174,
        192,
        263,
        294,
        177,
        171,
        281,
        218,
        178,
        112,
        169,
        268,
        57,
        83,
        126,
        36,
        95,
        43,
        23,
        211,
        299,
        38,
        220,
        151,
        207,
        234,
        94,
        55,
        89,
        80,
        48,
        51,
        91,
        103,
        202,
        150,
        258,
        50,
        161,
        146,
        187,
        137,
        28,
        276,
        74,
        153,
        136,
        8,
        284,
        31,
        184,
        148,
        44,
        219,
        250,
        84,
        180,
        122,
        140,
        72,
        261,
        114,
        67,
        271,
        214,
        205,
        147,
        156,
        78,
        196,
        12,
        282,
        108,
        24,
        76,
        113,
        73,
        193,
        273,
        15,
        238,
        16,
        54,
        287,
        52,
        233,
        166,
        25,
        257,
        35,
        97,
        22,
        283,
        41,
        209,
        270,
        66,
        267,
        182,
        5,
        236,
        198,
        18,
        203,
        0,
        142,
        139,
        33,
        286,
        10,
        56,
        68,
        290,
        154,
        189,
        129,
        93,
        85,
        82,
        215,
        227,
        201,
        123,
        63,
        160,
        241,
        197,
        224,
        86,
        64,
        176,
        87
    ],
    "Nb of functions evaluations": 50010,
    "Computational time in seconds": 140.96475410461426,
    "Stopping criterion in evaluations": 50000
}